33D32945 STP File, STP Format Version 1.0

SECTION Comment
Name "lin01-75s"
Creator "Bernd Zey"
Problem "Stochastic Steiner Tree Problem"
# Stochastic Steiner tree problem instance, base file: lin01.stp
# weight-scaling off
# parameters:
# distribution=equal
# selectRootRandomly=0
# probabilityTerminal=33
# probabilityNonTerminal=5
# 2nd stage edge-costs in [1.1000c_e, 1.3000c_e]
END

SECTION Graph
Nodes 53
Edges 80
Scenarios 75
Root 1
E 1 32 46
E 1 25 26
E 2 51 10
E 2 32 74
E 2 11 70
E 3 52 110
E 3 40 85
E 4 45 66
E 4 51 24
E 4 12 162
E 5 44 12
E 5 23 64
E 5 49 50
E 6 15 88
E 6 30 144
E 6 12 92
E 6 26 160
E 7 9 30
E 7 29 6
E 7 52 160
E 8 28 64
E 8 44 42
E 8 29 62
E 9 12 44
E 10 41 88
E 10 19 26
E 10 16 2
E 11 53 2
E 11 14 42
E 12 34 160
E 13 15 160
E 13 26 88
E 14 43 2
E 14 28 18
E 15 33 144
E 16 18 88
E 16 46 26
E 16 48 146
E 17 29 42
E 17 44 62
E 17 24 62
E 18 41 2
E 18 27 146
E 19 38 76
E 19 46 2
E 20 42 102
E 20 37 190
E 21 48 26
E 21 46 146
E 21 51 66
E 21 45 24
E 22 28 2
E 22 43 18
E 22 23 52
E 23 31 18
E 24 49 62
E 24 40 75
E 25 50 72
E 25 47 28
E 26 34 92
E 27 48 88
E 27 39 24
E 30 33 88
E 30 36 18
E 31 43 52
E 31 37 50
E 32 35 72
E 33 39 18
E 34 52 74
E 35 46 76
E 35 38 2
E 35 50 72
E 36 39 88
E 36 48 24
E 36 45 26
E 37 49 82
E 38 42 72
E 42 50 2
E 43 53 42
E 47 53 46
END

SECTION StochasticProbabilities
SP 0.016100 0.016100 0.010800 0.010800 0.0067000 0.0094000 0.010800 0.0054000 0.013400 0.012100 0.013400 0.014800 0.0081000 0.0081000 0.0081000 0.017500 0.013400 0.016100 0.014800 0.012100 0.017500 0.010800 0.010800 0.013400 0.014800 0.012100 0.0041000 0.0094000 0.017500 0.021500 0.016100 0.017500 0.013300 0.0080000 0.012000 0.017400 0.014700 0.014700 0.021400 0.018700 0.018700 0.0093000 0.0080000 0.013300 0.010700 0.0093000 0.016000 0.014700 0.018700 0.012000 0.0080000 0.012000 0.010700 0.013300 0.016000 0.013300 0.017400 0.014700 0.016000 0.0093000 0.017400 0.021400 0.010700 0.0053000 0.012000 0.013300 0.012000 0.017400 0.017400 0.018700 0.0053000 0.012000 0.018700 0.013300 0.020000
END

SECTION StochasticWeights
SE 53 57 59 56 59 59 53 58 57 51 51 52 51 57 54 54 51 58 53 59 51 52 51 54 52 56 53 51 55 54 57 57 53 54 55 58 54 57 54 51 55 51 51 51 59 52 54 56 54 51 51 51 52 59 55 51 52 55 58 56 57 58 59 54 54 56 51 51 58 53 56 52 51 59 59 
SE 31 30 32 29 29 30 32 31 33 32 29 31 32 33 32 29 33 31 29 31 32 29 32 31 33 30 29 32 29 33 30 31 29 32 31 29 33 33 33 29 29 30 29 32 31 31 29 32 29 29 29 29 30 30 32 30 32 29 33 31 30 29 32 31 32 29 32 29 32 32 29 30 32 32 31 
SE 12 11 12 12 12 12 13 13 13 11 12 12 12 11 12 11 11 12 13 11 11 11 11 12 13 12 13 12 13 13 12 13 11 13 13 13 12 11 13 12 13 11 12 13 13 12 11 11 13 12 11 11 11 13 12 13 12 13 13 11 11 13 11 13 13 13 12 11 12 13 11 13 11 11 12 
SE 96 82 88 90 91 82 92 83 84 89 90 95 93 82 96 88 89 95 82 89 86 92 96 88 83 91 87 91 85 91 93 96 89 86 83 84 83 86 90 96 92 86 96 82 82 92 86 84 83 95 91 89 89 82 82 88 96 87 84 86 86 85 87 93 96 82 91 90 84 84 90 93 86 83 90 
SE 90 81 80 89 82 80 91 89 87 80 80 91 87 81 81 79 89 82 78 83 82 78 90 86 86 88 84 86 81 86 78 85 90 81 77 85 78 87 89 86 91 80 85 87 86 85 83 77 90 86 81 84 83 90 87 89 78 82 83 83 80 87 86 80 82 89 86 85 79 82 84 82 88 91 77 
SE 137 133 125 125 126 142 138 130 123 134 131 143 123 134 125 142 123 134 138 125 134 132 127 127 142 135 124 122 134 127 136 122 135 138 122 122 143 138 138 135 142 124 130 143 129 142 130 138 126 125 126 140 130 139 129 126 122 138 127 124 140 128 138 133 132 128 126 122 130 133 126 127 142 139 130 
SE 101 107 110 98 94 95 109 103 108 100 102 104 100 101 110 99 100 104 105 105 101 109 107 94 110 108 95 100 107 97 108 100 107 98 100 100 106 99 102 103 106 102 105 108 103 101 103 102 104 94 106 105 94 104 96 99 94 110 94 99 110 108 103 104 98 105 107 109 109 103 103 101 97 99 97 
SE 79 79 76 84 78 77 80 85 73 75 78 81 79 79 81 76 81 74 73 80 79 82 84 73 79 77 79 75 75 73 84 79 73 85 78 83 82 82 79 73 73 73 78 78 73 83 75 76 80 83 78 84 73 81 73 85 85 76 74 83 84 76 77 79 81 82 73 74 75 84 81 77 73 76 85 
SE 29 27 28 28 29 27 27 27 30 27 27 29 27 28 30 27 28 27 27 29 29 31 29 30 28 27 28 29 27 30 30 30 27 31 29 28 30 29 29 27 31 30 27 27 27 27 29 27 29 27 28 27 30 30 27 31 29 27 29 31 31 28 27 30 29 28 27 29 27 31 30 31 27 31 29 
SE 182 205 182 179 183 195 190 182 193 203 192 202 195 199 181 183 186 188 194 207 197 203 186 186 207 188 188 185 185 184 179 199 179 210 195 207 181 186 203 203 183 204 186 193 198 192 205 190 188 206 191 192 198 198 184 201 193 185 207 186 182 179 209 208 187 193 198 203 188 182 200 195 203 187 188 
SE 15 14 15 14 14 14 15 14 14 14 14 14 14 14 14 15 14 14 14 14 14 15 14 15 15 14 14 14 15 15 14 14 14 15 14 15 14 14 15 14 14 15 15 14 14 15 14 14 14 14 15 14 14 14 15 14 15 14 14 14 14 14 14 15 14 15 14 14 14 14 14 14 15 14 14 
SE 71 74 81 78 76 75 71 74 71 80 79 73 83 82 83 73 79 80 76 71 83 79 72 75 77 72 78 77 76 82 82 80 74 77 81 71 73 82 80 71 74 73 71 82 73 79 83 83 71 82 73 81 82 76 71 76 72 74 80 81 81 71 71 73 71 79 75 83 71 74 78 77 76 77 73 
SE 59 65 56 64 57 59 58 63 64 59 65 61 61 59 59 61 58 65 63 60 65 63 61 64 62 65 56 56 63 63 58 56 65 57 62 59 56 59 63 56 58 56 57 62 61 57 56 56 64 59 58 58 58 65 58 56 56 60 59 64 62 56 60 56 63 63 65 65 62 61 58 61 60 63 58 
SE 103 99 105 111 106 104 114 106 103 98 97 97 103 98 97 102 107 103 108 97 106 98 113 110 113 111 99 110 100 107 100 112 110 104 102 99 103 97 104 99 100 100 99 98 109 97 110 113 111 98 98 98 100 107 107 99 98 110 97 110 98 98 97 109 112 97 100 113 107 98 106 102 97 113 110 
SE 185 163 185 184 177 162 176 166 165 163 181 165 186 167 183 166 169 180 183 166 178 180 172 162 168 169 159 178 164 165 175 168 176 160 165 172 172 184 163 173 176 186 177 166 174 177 176 173 162 161 170 170 159 181 179 159 183 163 185 171 162 172 159 163 171 163 184 159 182 174 184 187 174 174 159 
SE 109 118 114 114 109 115 103 117 114 105 106 114 114 102 108 106 116 108 113 102 117 110 106 109 114 118 104 104 102 104 112 115 106 104 113 102 114 104 119 107 109 113 108 112 102 108 108 114 111 119 102 110 103 110 111 102 105 103 115 111 113 114 112 111 118 114 112 113 105 102 103 108 116 111 104 
SE 202 189 184 199 203 179 208 189 181 198 185 200 198 184 178 187 197 177 180 179 184 203 197 188 195 185 183 178 197 177 184 196 191 180 192 176 181 208 188 199 208 178 208 188 176 202 189 208 202 178 192 206 183 199 195 208 184 199 195 191 193 181 176 186 179 193 179 207 186 200 208 181 178 181 195 
SE 34 37 36 33 38 38 39 38 33 33 33 36 36 39 38 33 35 36 38 38 36 36 35 37 39 33 35 38 37 38 35 34 35 34 33 39 39 33 39 34 36 33 34 39 36 34 39 33 36 34 35 37 37 34 34 39 38 37 34 34 36 39 34 39 33 39 39 37 39 39 33 38 33 36 37 
SE 7 7 7 7 7 7 7 7 7 7 7 7 7 7 7 7 7 7 7 7 7 7 7 7 7 7 7 7 7 7 7 7 7 7 7 7 7 7 7 7 7 7 7 7 7 7 7 7 7 7 7 7 7 7 7 7 7 7 7 7 7 7 7 7 7 7 7 7 7 7 7 7 7 7 7 
SE 183 205 193 192 191 205 188 207 188 198 199 193 181 176 207 201 185 204 195 200 195 193 205 202 193 205 178 186 185 205 199 198 176 193 208 195 185 199 202 199 188 197 203 195 201 196 190 185 186 179 198 199 207 185 192 177 189 206 177 202 198 187 195 192 206 187 179 177 197 176 199 187 195 195 193 
SE 76 73 80 83 75 83 77 76 71 71 77 80 81 75 75 75 77 83 83 80 77 80 78 80 73 72 71 80 82 81 74 78 81 78 72 83 73 80 78 71 72 73 80 71 74 75 71 82 76 73 83 83 82 72 76 78 72 77 73 78 77 81 81 81 76 75 83 82 73 79 71 73 75 73 83 
SE 47 48 49 47 47 48 53 54 47 53 52 49 54 47 48 47 47 50 47 50 47 50 54 52 51 50 48 52 52 49 54 49 53 48 50 50 47 54 47 49 47 47 47 52 53 48 54 47 54 51 52 47 51 49 51 52 50 52 49 52 52 50 54 52 54 47 47 51 52 47 48 48 51 49 47 
SE 79 71 71 76 73 78 77 69 69 76 71 80 70 80 79 69 69 77 71 69 71 74 69 75 77 77 80 76 69 70 73 74 73 74 73 70 71 72 77 80 69 70 75 79 69 79 73 78 80 76 70 76 70 74 80 73 70 80 74 69 72 72 74 75 80 69 72 74 79 72 78 75 70 70 77 
SE 49 52 55 50 55 54 50 49 57 50 57 54 56 49 57 57 51 52 50 49 49 49 56 56 52 57 56 49 49 49 49 57 55 49 51 54 52 57 54 51 51 49 53 56 52 53 51 55 57 49 49 50 49 53 49 51 56 53 51 55 56 49 56 49 49 57 52 49 55 56 56 50 56 49 49 
SE 112 114 108 98 113 97 103 103 107 114 97 102 97 98 110 104 110 99 113 113 113 101 106 105 104 112 104 110 114 104 100 103 105 102 105 113 109 97 110 106 103 99 101 108 101 109 113 103 113 98 101 104 104 107 102 111 108 109 97 103 106 103 98 104 97 101 97 101 107 106 104 99 97 109 97 
SE 29 29 29 32 29 30 32 33 29 32 31 33 29 29 29 30 29 31 29 33 30 31 32 29 29 29 32 29 33 29 33 32 29 32 29 31 29 30 29 32 29 32 31 29 29 29 30 29 29 31 30 30 29 33 29 30 29 33 29 33 29 30 33 30 31 30 29 31 31 29 29 29 29 31 31 
SE 3 3 3 3 3 3 3 3 3 3 3 3 3 3 3 3 3 3 3 3 3 3 3 3 3 3 3 3 3 3 3 3 3 3 3 3 3 3 3 3 3 3 3 3 3 3 3 3 3 3 3 3 3 3 3 3 3 3 3 3 3 3 3 3 3 3 3 3 3 3 3 3 3 3 3 
SE 3 3 3 3 3 3 3 3 3 3 3 3 3 3 3 3 3 3 3 3 3 3 3 3 3 3 3 3 3 3 3 3 3 3 3 3 3 3 3 3 3 3 3 3 3 3 3 3 3 3 3 3 3 3 3 3 3 3 3 3 3 3 3 3 3 3 3 3 3 3 3 3 3 3 3 
SE 52 53 54 47 53 47 54 53 50 52 50 53 48 53 51 48 54 48 53 47 49 47 53 51 50 47 51 51 49 47 47 47 47 48 52 51 50 51 47 50 54 50 54 49 47 51 54 48 47 49 48 50 47 52 52 49 53 53 47 47 51 47 52 47 51 52 54 49 49 48 52 52 52 51 48 
SE 186 207 180 200 192 205 187 207 206 188 189 195 183 191 205 197 197 205 185 194 202 201 187 207 191 185 206 185 193 178 183 207 186 196 184 205 204 194 208 186 208 187 207 192 189 206 186 197 189 195 191 198 176 185 205 192 186 184 177 199 196 198 185 183 186 207 195 182 198 190 181 190 201 179 178 
SE 189 178 200 176 201 185 197 202 179 208 189 204 195 196 179 183 198 193 205 179 184 199 190 198 193 200 176 202 199 183 190 196 206 191 202 197 198 197 207 184 200 203 180 187 198 192 198 201 189 201 191 181 192 191 179 176 205 208 179 205 192 177 188 204 194 194 182 190 194 206 177 186 193 202 207 
SE 98 106 105 107 107 104 104 100 114 105 110 97 97 103 112 109 99 107 109 108 100 114 100 113 110 114 111 99 111 97 104 98 99 97 111 106 111 107 101 112 106 97 113 99 109 111 97 100 106 102 109 110 112 101 100 101 97 99 111 114 105 101 109 101 101 98 109 107 104 102 109 97 100 111 99 
SE 3 3 3 3 3 3 3 3 3 3 3 3 3 3 3 3 3 3 3 3 3 3 3 3 3 3 3 3 3 3 3 3 3 3 3 3 3 3 3 3 3 3 3 3 3 3 3 3 3 3 3 3 3 3 3 3 3 3 3 3 3 3 3 3 3 3 3 3 3 3 3 3 3 3 3 
SE 20 20 20 20 23 23 20 20 20 20 20 21 20 21 21 20 20 22 20 22 21 21 20 20 20 20 22 21 21 22 22 23 20 20 20 21 22 21 22 23 21 20 22 21 21 23 20 22 21 20 22 22 20 23 21 20 20 23 20 20 20 23 20 21 22 21 20 20 23 20 20 21 20 20 21 
SE 170 185 178 159 178 166 170 178 186 168 167 162 187 168 172 161 169 182 159 169 183 160 159 179 161 160 159 168 179 162 170 181 177 167 182 181 181 170 180 169 166 175 183 164 175 170 177 181 170 183 186 172 177 177 176 159 162 165 162 183 159 171 173 162 170 181 179 186 181 161 168 167 172 182 183 
SE 97 97 98 108 97 104 102 113 100 101 113 113 110 109 106 101 102 97 104 97 114 101 111 114 97 108 100 108 104 109 105 101 107 106 97 113 111 114 111 107 104 106 109 111 108 97 99 107 104 109 114 104 109 114 98 104 109 104 107 100 102 109 101 112 110 98 100 114 112 114 98 111 101 110 99 
SE 33 33 32 32 32 29 33 30 33 33 31 32 29 29 29 31 33 33 31 29 29 29 33 33 30 30 30 29 33 29 32 29 30 32 32 29 29 30 29 32 31 33 33 29 29 31 32 29 31 29 30 31 29 33 33 32 29 32 29 33 33 32 29 30 32 30 29 30 29 31 29 30 31 30 33 
SE 180 163 177 183 170 163 162 188 183 175 176 173 172 172 189 167 166 188 165 171 169 166 186 181 186 181 182 169 189 186 176 176 163 181 171 179 188 161 179 188 185 180 161 169 182 181 184 163 189 177 178 161 167 161 175 161 189 183 165 183 164 171 189 187 187 181 164 161 185 174 172 165 182 172 169 
SE 50 48 48 51 49 54 47 51 54 49 47 54 47 54 51 47 50 47 48 49 47 47 54 51 52 54 47 49 47 50 49 47 52 47 50 51 49 51 49 53 48 47 48 50 54 54 47 47 47 49 50 50 47 47 47 49 48 47 51 53 51 53 49 50 50 47 50 47 54 48 53 47 50 47 51 
SE 72 77 80 80 71 71 71 76 71 73 71 78 71 77 70 78 72 75 72 78 72 79 73 70 74 72 72 73 70 69 70 76 71 70 72 79 69 78 70 76 69 74 69 77 75 74 69 79 69 78 76 69 77 76 77 69 74 75 77 76 72 70 78 75 74 69 74 69 74 69 80 80 70 75 80 
SE 78 76 70 69 73 78 72 69 77 69 69 69 73 69 72 76 71 76 76 73 72 69 77 71 69 70 74 75 80 75 69 78 73 73 72 80 73 74 80 72 79 74 77 80 76 71 79 70 79 79 74 77 70 75 80 75 75 77 71 71 76 72 70 79 80 70 69 77 78 78 71 79 69 70 79 
SE 3 3 3 3 3 3 3 3 3 3 3 3 3 3 3 3 3 3 3 3 3 3 3 3 3 3 3 3 3 3 3 3 3 3 3 3 3 3 3 3 3 3 3 3 3 3 3 3 3 3 3 3 3 3 3 3 3 3 3 3 3 3 3 3 3 3 3 3 3 3 3 3 3 3 3 
SE 183 186 179 178 172 184 183 175 170 177 179 175 184 188 161 172 167 163 174 187 163 176 184 165 181 188 169 170 174 161 170 168 181 179 185 178 163 168 184 189 176 179 163 166 179 178 185 184 165 162 166 181 170 171 173 174 177 183 165 185 161 161 173 173 184 177 171 179 170 175 170 187 166 166 163 
SE 87 85 96 98 96 96 87 90 86 93 84 91 84 86 85 91 91 98 86 92 96 94 88 85 97 94 91 84 84 89 94 93 96 93 88 88 84 92 87 93 86 88 85 91 95 98 97 93 95 94 96 87 84 93 86 92 90 87 85 96 95 91 86 97 87 84 92 97 94 94 90 86 94 93 93 
SE 3 3 3 3 3 3 3 3 3 3 3 3 3 3 3 3 3 3 3 3 3 3 3 3 3 3 3 3 3 3 3 3 3 3 3 3 3 3 3 3 3 3 3 3 3 3 3 3 3 3 3 3 3 3 3 3 3 3 3 3 3 3 3 3 3 3 3 3 3 3 3 3 3 3 3 
SE 121 118 125 126 113 132 127 118 115 132 128 132 129 117 119 127 119 122 116 123 118 121 113 113 114 115 116 118 113 119 116 132 124 122 126 123 129 120 113 127 132 115 129 127 121 120 125 131 122 132 121 113 113 126 123 118 122 116 113 113 117 118 126 114 119 123 129 130 113 129 130 126 130 125 115 
SE 214 227 213 228 231 221 220 225 214 222 218 230 213 225 218 225 235 211 217 239 217 240 230 213 220 212 211 238 226 217 218 246 228 235 232 242 233 219 234 224 244 229 236 244 217 212 231 211 232 210 225 224 211 214 232 224 244 231 232 246 241 233 230 224 224 210 243 232 222 246 232 239 239 216 231 
SE 32 33 29 33 33 33 31 33 29 30 29 29 32 31 29 29 30 32 31 30 29 33 30 30 30 33 30 29 29 29 32 33 32 29 31 29 30 31 29 33 32 31 32 29 29 29 32 30 32 30 33 29 29 31 32 29 29 31 29 33 29 32 32 32 30 29 31 31 30 29 31 32 29 31 32 
SE 161 174 172 166 165 161 170 164 161 169 186 178 179 174 169 170 170 185 174 183 186 163 180 187 181 161 177 177 187 164 171 178 162 189 170 170 167 163 183 188 169 179 167 183 186 166 171 171 179 161 168 166 184 167 183 179 189 187 186 184 164 165 164 161 173 166 161 188 166 188 186 180 189 168 167 
SE 78 82 73 78 78 75 82 81 76 81 76 73 78 76 78 85 75 73 79 77 80 85 84 76 81 81 85 74 85 73 75 79 77 77 84 84 84 76 85 81 74 73 74 83 75 83 78 85 81 76 78 77 81 76 80 82 75 79 75 80 74 83 77 85 85 84 77 73 84 78 76 78 85 82 85 
SE 29 31 28 27 29 29 30 27 31 31 27 28 27 29 28 31 27 31 31 27 28 27 27 27 28 27 28 29 31 31 29 27 27 30 28 27 27 31 27 28 31 30 30 30 28 30 27 29 29 27 28 27 29 27 31 27 28 27 31 28 27 30 29 29 30 27 30 27 31 30 31 30 29 30 30 
SE 3 3 3 3 3 3 3 3 3 3 3 3 3 3 3 3 3 3 3 3 3 3 3 3 3 3 3 3 3 3 3 3 3 3 3 3 3 3 3 3 3 3 3 3 3 3 3 3 3 3 3 3 3 3 3 3 3 3 3 3 3 3 3 3 3 3 3 3 3 3 3 3 3 3 3 
SE 20 21 20 23 20 21 22 20 20 22 20 20 23 22 21 22 21 21 20 22 23 20 21 21 21 21 20 22 23 22 20 22 21 21 21 23 20 22 20 20 20 23 21 21 21 20 21 20 20 21 23 21 23 20 20 23 20 20 22 20 23 20 21 21 20 23 20 21 22 23 23 20 20 23 23 
SE 60 62 61 62 64 61 64 63 63 58 61 67 62 64 61 67 67 67 67 59 60 62 66 58 58 66 58 62 65 63 58 66 58 64 62 67 58 58 64 67 58 64 66 67 64 64 65 62 63 58 67 60 58 60 59 58 60 61 67 58 59 61 61 65 66 67 58 58 61 58 67 66 64 58 67 
SE 20 22 20 23 23 21 22 22 21 22 20 21 23 20 22 22 23 20 23 20 23 23 20 20 20 20 20 21 22 21 22 20 22 21 21 22 20 20 23 22 21 20 23 20 20 21 20 20 21 21 22 22 22 23 23 21 20 20 21 21 20 22 20 21 21 22 20 23 20 22 20 22 22 20 21 
SE 71 77 71 73 73 78 69 73 78 69 69 73 73 70 74 79 70 79 77 80 80 69 70 69 70 74 80 72 71 76 69 70 73 69 80 79 71 70 69 70 73 71 75 69 72 74 75 76 69 73 72 71 78 79 69 69 71 76 75 72 74 72 79 74 71 77 77 80 76 72 78 70 74 69 77 
SE 88 85 83 93 90 95 94 91 97 97 84 92 84 96 84 83 83 93 85 88 86 88 84 84 91 89 85 95 94 86 93 97 96 93 85 86 83 86 83 85 97 89 92 83 91 83 84 93 87 97 89 92 83 89 86 96 85 85 84 85 96 83 95 84 88 90 97 92 92 92 83 84 86 92 84 
SE 91 90 85 81 93 81 81 85 86 92 84 81 86 90 81 85 88 80 80 89 93 84 81 80 83 87 83 82 90 93 82 82 83 81 80 88 92 86 80 85 89 93 84 91 92 87 89 80 80 88 89 80 93 82 83 92 87 89 80 91 93 90 88 84 89 82 80 88 81 82 86 86 92 83 86 
SE 34 35 33 31 36 36 34 34 34 34 33 34 31 35 36 32 35 31 34 31 31 31 31 35 35 31 32 34 36 31 31 31 31 33 31 36 31 35 34 34 31 35 33 34 35 36 35 34 31 34 31 32 33 31 35 34 31 33 35 31 34 31 33 34 36 35 33 35 34 31 32 34 35 32 31 
SE 116 115 112 102 103 111 117 113 108 118 102 119 116 102 110 117 108 117 104 102 112 117 111 104 103 102 119 118 102 105 105 118 102 114 109 102 119 103 102 116 108 107 106 109 112 108 110 117 119 106 104 117 114 109 116 116 118 118 108 102 106 115 107 105 104 105 112 113 103 103 105 115 102 112 102 
SE 111 109 107 99 97 106 108 100 106 114 99 101 99 106 110 105 104 101 99 108 113 106 114 113 101 103 106 107 103 100 107 108 111 106 107 101 98 107 111 113 100 100 112 106 105 105 113 102 102 106 97 104 105 109 97 103 99 102 105 107 100 107 99 104 110 99 114 105 111 105 102 98 107 99 97 
SE 28 27 30 30 27 30 29 29 29 27 28 27 31 29 28 28 27 27 27 29 29 31 28 30 27 31 27 27 30 27 27 27 30 27 27 28 30 27 27 27 30 29 30 27 30 29 29 30 27 27 31 28 27 29 28 29 30 28 31 31 28 27 31 27 27 31 31 27 29 27 27 27 31 31 27 
SE 110 101 97 104 109 112 101 112 99 104 109 112 109 100 99 103 106 102 109 108 111 108 107 98 109 114 110 97 110 100 108 113 100 106 101 103 110 109 101 105 110 100 99 104 101 97 105 98 102 104 112 107 106 109 97 114 114 113 97 112 111 97 112 102 105 99 101 97 104 101 110 108 101 101 97 
SE 21 22 21 21 20 20 20 22 21 20 21 20 22 22 20 20 23 22 23 20 21 23 20 20 23 21 20 21 20 22 20 20 21 22 20 20 20 22 20 23 22 23 22 21 22 23 20 22 20 22 20 21 22 21 21 20 20 21 23 20 20 22 21 23 22 20 22 20 23 20 22 23 23 21 23 
SE 64 64 66 60 58 67 67 64 59 58 67 59 61 67 66 58 67 60 65 67 65 63 58 62 60 60 58 62 61 58 67 59 58 65 61 60 58 67 64 64 66 67 62 59 65 58 67 58 58 64 67 62 62 63 63 64 63 65 60 59 61 58 65 67 67 65 63 67 64 58 64 60 59 65 63 
SE 59 63 57 64 64 63 60 59 62 56 59 63 63 64 56 64 56 56 56 59 62 62 63 59 59 58 58 65 60 65 59 61 63 57 62 63 62 64 56 57 57 59 60 63 61 63 64 56 64 64 64 60 65 65 60 64 63 56 62 62 64 64 63 57 61 64 56 58 59 60 61 58 64 65 58 
SE 86 92 82 85 85 90 83 84 92 91 84 87 93 82 91 82 80 87 82 92 82 90 86 82 83 87 91 80 85 92 91 92 86 80 80 92 83 91 93 82 92 91 81 84 81 81 89 85 80 80 85 92 90 93 85 80 81 83 83 90 80 90 93 86 88 85 87 88 90 80 82 84 93 83 87 
SE 20 20 22 22 20 20 20 21 23 22 22 20 21 22 22 23 22 23 20 20 21 21 20 23 23 20 20 23 21 22 23 21 20 20 20 20 23 22 21 20 20 21 22 20 23 22 21 20 20 23 20 20 20 23 21 20 20 23 22 20 20 21 20 20 21 20 23 21 22 23 21 20 23 20 20 
SE 90 82 83 82 94 85 85 93 87 82 83 96 96 93 88 85 84 85 82 82 90 96 87 96 83 95 91 88 93 91 87 87 96 86 84 82 96 90 85 82 90 83 95 94 90 90 94 85 88 89 93 83 88 86 83 85 82 91 91 83 93 89 85 85 94 88 93 92 84 95 91 82 82 96 89 
SE 96 91 84 91 98 86 86 87 86 93 84 84 97 84 84 94 91 92 85 96 84 84 84 94 89 98 90 92 93 84 86 89 93 87 86 84 96 93 84 84 91 92 86 94 95 92 91 89 94 84 91 86 92 92 92 88 91 98 93 93 97 88 94 85 96 84 84 92 95 96 97 86 92 94 84 
SE 3 3 3 3 3 3 3 3 3 3 3 3 3 3 3 3 3 3 3 3 3 3 3 3 3 3 3 3 3 3 3 3 3 3 3 3 3 3 3 3 3 3 3 3 3 3 3 3 3 3 3 3 3 3 3 3 3 3 3 3 3 3 3 3 3 3 3 3 3 3 3 3 3 3 3 
SE 83 82 89 82 80 80 81 86 82 80 87 82 91 80 93 91 81 88 85 85 87 80 85 90 81 81 84 90 93 93 93 85 90 89 91 90 80 81 80 86 86 93 80 89 91 88 84 93 88 92 82 81 92 80 89 87 86 86 83 80 82 93 83 84 91 88 80 80 80 93 90 86 86 80 90 
SE 104 109 97 106 97 99 105 104 110 98 112 97 99 97 101 107 99 103 103 112 103 101 97 102 103 109 100 100 112 99 104 107 114 108 114 97 113 97 112 114 109 111 110 98 97 97 112 109 97 99 106 111 111 102 103 106 102 98 110 101 101 108 97 105 108 102 99 109 109 105 103 108 103 111 108 
SE 30 29 31 30 31 27 31 31 30 31 27 28 27 31 28 30 28 30 27 31 30 27 29 28 27 31 29 30 29 27 31 28 29 27 27 29 31 27 30 27 27 31 30 28 28 30 27 27 28 27 28 27 29 28 30 28 27 27 28 28 27 31 31 29 27 30 27 28 31 27 27 29 27 30 30 
SE 29 29 32 29 30 30 32 29 32 30 32 33 33 30 32 33 30 31 32 29 31 31 32 29 30 30 32 30 32 31 33 32 33 33 32 31 29 29 29 29 33 30 29 31 29 29 31 30 29 31 30 30 31 32 30 30 33 29 29 32 33 29 32 30 32 29 29 29 33 29 30 33 29 33 32 
SE 105 104 92 91 92 98 95 95 93 92 102 97 96 106 92 106 98 97 93 106 106 104 102 104 93 95 102 91 94 106 106 104 103 91 106 101 100 103 103 106 93 93 105 103 105 91 104 98 91 98 100 96 99 92 97 97 97 94 96 103 102 93 99 105 101 98 93 93 95 99 100 95 103 98 104 
SE 93 80 86 83 84 92 81 81 80 81 90 93 85 80 91 90 90 93 84 84 80 81 80 87 90 89 82 92 86 89 88 93 92 88 82 84 93 90 87 90 85 82 86 90 89 92 85 85 92 81 91 83 88 90 80 80 81 80 80 90 84 85 85 93 87 89 84 82 89 91 85 93 91 90 89 
SE 3 3 3 3 3 3 3 3 3 3 3 3 3 3 3 3 3 3 3 3 3 3 3 3 3 3 3 3 3 3 3 3 3 3 3 3 3 3 3 3 3 3 3 3 3 3 3 3 3 3 3 3 3 3 3 3 3 3 3 3 3 3 3 3 3 3 3 3 3 3 3 3 3 3 3 
SE 53 54 49 50 54 53 50 47 48 54 53 53 51 52 50 54 52 51 54 52 52 54 50 49 51 49 51 54 52 52 50 51 49 50 53 47 50 51 47 53 47 49 47 50 47 47 47 49 47 52 52 47 54 47 49 47 54 49 48 51 49 52 48 50 49 49 52 52 47 48 47 54 52 50 54 
SE 53 57 56 51 51 53 54 58 59 53 57 54 51 52 58 51 51 57 51 53 58 57 56 51 55 56 51 57 59 59 58 57 51 55 59 57 56 51 53 57 55 51 52 51 56 55 57 57 59 51 52 55 51 51 54 59 52 52 54 51 54 53 51 57 58 59 58 53 51 51 52 51 58 56 55 
END

SECTION StochasticTerminals
ST 1 1 1 1 1 1 1 1 1 1 1 1 1 1 1 1 1 1 1 1 1 1 1 1 1 1 1 1 1 1 1 1 1 1 1 1 1 1 1 1 1 1 1 1 1 1 1 1 1 1 1 1 1 1 1 1 1 1 1 1 1 1 1 1 1 1 1 1 1 1 1 1 1 1 1 1 
ST 2 0 0 0 0 0 0 0 0 0 0 0 0 0 0 0 0 0 0 0 0 0 0 0 0 0 0 0 0 0 0 0 0 0 0 0 0 0 0 0 0 0 0 0 0 0 0 0 0 0 0 0 0 0 0 0 0 0 1 0 0 0 0 0 0 0 0 0 0 0 0 0 0 0 1 0 
ST 3 0 0 0 1 0 0 0 0 0 0 0 0 0 0 0 0 0 1 0 0 0 0 0 0 0 0 0 0 0 0 1 0 0 0 0 0 0 0 0 0 0 0 0 1 0 0 0 0 1 0 0 0 0 0 0 0 0 0 0 0 0 0 0 0 0 0 0 0 0 0 0 0 0 0 0 
ST 4 0 0 0 0 0 0 0 0 0 0 0 0 0 0 0 0 0 0 0 0 0 0 0 0 0 0 0 0 0 0 0 0 0 0 0 1 0 0 0 0 0 0 0 1 0 0 0 0 1 0 0 0 1 0 0 0 0 0 0 0 0 0 1 0 0 0 1 0 0 0 0 0 0 0 0 
ST 5 0 0 0 0 0 0 0 0 0 0 0 0 0 0 0 1 0 0 0 0 0 0 0 0 0 0 0 0 0 0 0 0 0 0 0 0 0 0 0 0 0 0 0 0 0 0 0 0 0 0 0 0 0 0 1 0 0 0 0 0 0 0 0 0 0 0 0 0 0 0 0 0 0 0 0 
ST 6 0 0 0 0 0 0 0 0 0 0 0 0 0 0 0 0 0 0 0 0 0 0 0 0 0 0 0 0 0 0 0 0 0 0 0 0 0 0 0 0 0 0 0 1 0 1 0 0 0 0 0 0 0 0 0 1 0 0 0 0 0 0 1 0 0 0 0 0 0 0 0 0 0 1 0 
ST 7 0 0 0 0 0 0 0 0 0 0 0 0 0 0 0 0 0 0 0 0 0 0 0 0 0 0 0 0 0 0 0 0 0 0 0 0 0 0 0 0 0 0 0 0 0 0 0 0 0 0 0 0 0 0 0 0 1 0 0 0 0 0 0 0 0 1 0 0 0 0 0 0 0 0 0 
ST 8 0 0 1 1 1 0 0 0 0 0 0 0 0 0 0 0 0 1 0 0 0 0 0 0 0 0 0 0 0 0 0 0 0 0 0 0 0 0 0 0 0 0 0 0 1 0 0 0 0 0 0 0 0 0 0 0 1 0 0 0 0 0 0 0 0 1 0 0 0 0 0 0 0 0 0 
ST 9 0 1 0 0 1 1 0 1 1 0 0 1 0 1 0 0 1 1 1 0 0 0 0 0 0 0 0 0 0 1 0 0 1 0 1 0 1 1 0 1 0 1 1 1 0 0 0 1 0 0 1 0 0 1 1 0 0 0 0 1 0 0 0 0 0 0 1 0 0 0 0 1 0 0 1 
ST 10 0 0 0 0 0 0 0 0 0 0 0 0 0 0 0 0 1 0 0 0 0 0 0 0 0 0 0 0 0 0 0 0 0 0 0 0 0 0 0 0 1 0 0 1 0 0 0 0 0 0 0 0 0 0 0 0 0 0 0 0 0 0 0 0 0 0 0 0 0 0 0 0 0 0 0 
ST 11 0 0 0 0 0 0 0 0 0 0 0 0 0 0 1 0 0 0 0 0 0 0 0 0 0 0 0 0 0 0 0 0 0 0 1 0 0 0 0 0 0 0 0 0 0 0 0 0 0 0 0 0 1 0 0 0 0 0 0 0 0 0 0 0 0 0 0 0 0 0 0 0 0 0 0 
ST 12 0 0 0 0 0 0 0 0 0 0 0 0 0 0 0 0 0 0 0 0 1 0 0 0 0 0 0 0 0 0 0 0 0 0 0 0 0 0 0 1 0 1 0 0 0 0 0 0 0 0 0 0 1 0 0 0 0 0 0 0 0 0 1 0 0 0 0 0 0 0 0 0 0 0 0 
ST 13 0 0 0 0 0 0 0 0 0 0 1 0 0 1 0 0 0 0 0 0 0 0 0 0 0 0 0 1 0 0 0 0 0 0 0 0 0 0 0 0 0 0 0 0 0 0 0 0 0 0 0 0 1 0 0 1 0 0 0 0 0 0 0 0 0 0 0 1 0 0 0 0 0 0 0 
ST 14 0 0 0 0 0 0 0 0 0 0 0 0 0 0 0 0 0 0 0 1 0 0 0 0 0 0 0 0 0 0 0 0 0 0 0 0 0 0 0 0 0 0 0 0 0 1 0 0 0 0 0 0 0 0 0 0 0 0 0 1 1 0 1 0 0 0 0 0 0 0 0 0 0 1 0 
ST 15 0 0 0 0 0 0 0 0 0 0 1 0 0 0 0 0 0 0 0 0 0 0 0 0 0 0 0 0 0 0 0 0 0 0 0 0 0 0 0 0 0 0 0 0 0 0 0 0 0 0 0 1 0 0 0 0 0 0 0 0 0 1 0 0 0 0 0 0 1 0 0 0 0 0 0 
ST 16 0 0 0 0 0 0 0 0 0 0 0 0 0 0 0 0 0 0 0 0 0 0 0 0 0 0 0 0 0 0 0 0 0 1 1 0 0 0 0 0 0 0 0 0 0 0 0 0 0 0 0 0 0 0 0 0 0 0 0 0 0 0 0 0 0 0 0 0 1 0 0 0 0 0 0 
ST 17 0 0 0 0 0 0 0 0 0 0 0 0 0 0 0 0 0 0 0 0 0 0 0 0 0 0 0 0 0 0 0 0 0 0 0 1 0 0 0 0 0 0 0 0 0 0 0 0 0 0 0 0 0 0 0 0 0 0 0 0 0 0 0 0 0 0 0 0 1 1 0 0 0 0 0 
ST 18 0 0 0 0 0 0 0 0 0 0 0 0 0 0 0 0 0 0 0 0 0 0 0 0 0 0 0 0 0 0 0 0 0 0 0 0 0 0 0 0 0 0 0 0 0 0 0 0 0 0 0 0 0 0 0 0 0 0 0 0 0 0 0 0 0 0 0 0 0 1 0 0 0 0 0 
ST 19 0 0 0 0 0 0 0 0 0 0 0 0 0 0 0 0 0 0 0 0 0 0 0 0 0 0 0 0 0 0 0 0 0 0 0 0 0 0 0 0 0 0 0 0 0 0 0 0 1 0 0 0 0 0 0 1 0 0 0 0 0 0 0 0 0 0 0 0 0 0 0 0 0 0 0 
ST 20 0 0 0 0 0 1 0 0 0 0 0 0 0 0 0 0 0 0 0 0 0 0 0 0 0 0 0 0 0 0 0 0 0 0 0 0 0 0 0 0 0 0 0 0 0 0 0 0 0 0 0 0 0 0 0 0 0 0 0 1 0 0 0 0 0 0 0 0 1 0 0 0 1 0 0 
ST 21 0 0 0 0 0 0 0 0 0 0 0 0 0 1 0 1 0 0 0 0 0 0 0 0 0 0 0 0 0 0 0 0 0 0 0 0 0 0 0 0 0 0 0 0 0 0 0 0 0 0 1 0 0 0 0 0 0 0 0 0 0 0 0 0 0 0 0 0 0 0 0 0 0 0 0 
ST 22 0 0 0 0 0 0 0 0 1 0 0 0 0 0 0 0 0 0 0 0 0 0 0 0 0 0 0 0 0 0 0 0 0 0 0 0 0 0 0 0 0 0 0 0 0 1 0 0 1 0 0 1 0 0 0 0 0 0 0 0 0 0 0 1 0 0 0 0 0 0 0 0 0 0 1 
ST 23 0 0 0 0 0 0 0 0 0 0 0 0 0 0 0 0 0 0 0 0 0 0 0 0 1 0 0 0 0 0 0 0 0 0 0 0 0 0 0 0 0 0 0 0 0 0 1 0 0 0 0 0 0 0 0 0 0 0 0 1 0 0 0 1 0 1 0 0 0 0 0 0 0 0 0 
ST 24 0 0 0 0 0 0 1 0 0 0 0 0 0 1 0 0 0 0 0 0 0 0 0 0 0 0 0 0 0 0 0 0 0 0 0 0 0 0 0 0 0 0 0 0 0 0 0 0 0 0 0 0 0 0 0 0 0 0 0 0 0 0 1 0 0 0 0 0 0 0 0 0 0 0 0 
ST 25 0 0 0 0 0 0 0 0 0 0 0 0 0 0 0 0 1 0 0 0 0 0 0 0 0 0 0 0 0 0 0 0 0 0 0 0 0 0 0 0 0 0 1 0 1 0 0 0 0 0 0 0 1 0 0 0 0 0 0 0 0 0 0 0 0 0 0 0 0 0 0 0 0 0 0 
ST 26 0 0 0 0 0 0 0 0 0 0 0 0 0 0 0 0 0 0 0 0 0 0 0 0 0 0 0 0 0 0 0 0 0 0 0 0 0 0 1 0 0 0 0 0 0 0 0 0 0 0 0 0 0 0 0 0 0 0 0 0 0 0 0 0 0 0 0 0 0 0 0 0 0 0 0 
ST 27 0 1 0 0 0 0 0 0 0 0 0 0 0 0 0 0 0 0 0 0 0 0 0 0 0 0 0 1 0 0 0 0 0 0 1 0 1 0 0 0 0 0 0 1 0 0 0 0 0 0 0 0 0 0 0 0 0 1 0 0 0 0 0 0 0 0 0 0 0 0 0 0 0 0 0 
ST 28 0 0 0 1 0 0 0 0 0 0 0 0 0 0 0 0 0 0 0 0 0 0 1 0 0 0 0 0 0 0 0 1 0 0 0 0 0 0 0 0 0 0 0 0 0 0 0 0 0 0 0 0 0 0 0 0 0 0 0 0 0 0 1 0 0 0 0 0 0 0 0 0 1 0 0 
ST 29 0 0 0 0 0 0 1 0 0 0 0 0 0 0 0 0 0 0 0 0 0 0 0 0 0 0 0 0 0 0 0 0 0 0 0 0 0 0 0 0 0 0 1 0 0 0 0 0 0 0 0 0 1 0 0 0 0 0 0 0 0 0 0 0 0 0 1 0 0 0 0 1 0 0 0 
ST 30 0 0 0 0 0 0 0 0 0 0 0 0 0 0 0 0 0 0 0 0 0 0 0 0 0 0 0 0 0 0 0 0 0 0 0 0 0 0 0 0 0 1 0 0 0 0 0 0 0 0 0 0 0 1 0 0 0 1 0 0 0 0 0 0 0 0 0 0 0 0 0 0 0 0 0 
ST 31 0 0 0 0 0 0 0 0 0 0 0 0 0 0 0 0 0 0 1 0 0 0 0 0 0 0 0 0 0 0 0 0 0 0 0 0 0 0 0 0 0 0 0 0 0 0 0 1 1 0 0 0 0 0 0 0 0 0 0 0 0 0 0 0 0 0 0 0 0 0 1 0 0 0 1 
ST 32 0 0 0 0 0 0 0 0 0 0 0 0 0 0 0 0 0 0 0 0 0 0 0 1 0 0 0 0 0 0 0 0 0 0 0 0 0 0 1 1 0 0 0 0 0 0 0 0 0 0 0 0 0 0 0 0 0 0 0 0 0 0 0 0 0 0 0 0 0 0 0 0 1 0 0 
ST 33 0 0 0 0 0 0 0 0 0 0 0 0 0 0 0 0 0 0 0 0 0 0 0 0 0 0 0 0 0 0 0 0 0 0 0 0 0 0 0 0 0 0 0 1 1 0 0 0 0 0 0 0 0 0 0 0 0 1 0 0 0 0 0 0 1 0 0 0 0 0 0 0 0 0 0 
ST 34 0 0 0 0 0 0 0 0 1 0 0 0 0 0 0 0 0 0 0 0 0 0 0 0 0 0 0 0 0 0 0 0 0 0 0 0 0 0 0 0 0 0 0 0 0 0 0 0 0 0 0 0 0 0 0 0 0 0 0 0 0 0 0 0 0 0 0 0 0 0 0 0 0 0 0 
ST 35 1 0 0 0 0 0 0 0 0 0 0 0 0 0 0 0 0 0 0 0 0 0 0 0 0 0 0 1 1 0 0 0 0 0 0 0 0 0 0 0 0 0 0 0 0 0 0 0 0 0 1 0 0 0 0 0 0 0 0 0 0 0 0 0 0 0 0 0 0 0 0 0 0 0 1 
ST 36 0 0 0 0 0 0 0 0 0 0 1 0 0 0 0 0 0 0 0 0 0 0 0 0 0 0 1 0 0 0 0 0 0 0 0 0 0 0 0 0 0 0 0 0 0 0 0 0 0 0 0 0 0 0 0 0 0 0 0 0 0 0 0 0 0 0 0 0 0 0 0 0 0 0 0 
ST 37 0 0 0 0 0 0 0 0 0 0 0 0 1 0 0 0 0 0 0 0 0 0 0 0 0 0 0 0 0 0 0 1 0 0 0 0 0 0 0 0 0 1 0 0 0 0 0 0 0 0 0 0 0 0 0 0 0 0 0 0 0 0 0 0 0 0 0 0 0 0 0 0 0 0 0 
ST 38 0 0 0 0 0 0 0 0 0 0 0 0 0 0 0 0 0 0 0 0 0 0 0 0 0 0 0 0 0 0 0 0 0 0 0 0 0 0 0 0 0 0 0 0 0 0 0 0 0 1 0 0 1 0 0 0 0 0 0 0 0 0 0 0 0 0 0 0 0 0 0 0 0 0 0 
ST 39 0 0 0 0 1 0 0 0 0 0 0 0 0 0 0 0 0 0 1 0 0 0 0 1 0 0 0 0 0 0 0 0 1 0 0 0 0 0 0 0 0 0 0 0 0 0 0 0 0 0 0 0 0 0 0 0 0 0 0 0 0 0 0 0 0 0 0 0 0 0 0 0 0 0 0 
ST 40 1 0 0 1 0 1 1 1 0 0 0 0 1 0 0 0 1 1 1 0 0 1 0 1 0 1 0 1 0 0 0 0 1 0 1 0 0 0 0 0 0 1 1 1 1 0 1 0 0 0 0 0 0 0 1 0 1 1 0 0 0 0 1 1 0 0 1 1 1 0 1 0 1 0 0 
ST 41 0 0 0 0 0 0 0 0 0 0 0 0 0 0 0 0 0 0 0 0 0 0 0 0 0 0 0 0 0 0 0 0 0 0 0 0 0 0 0 0 0 0 0 0 0 0 1 0 0 0 1 0 0 0 0 0 0 0 0 0 0 0 0 0 0 0 0 0 0 0 0 0 0 0 0 
ST 42 1 0 0 0 0 0 1 0 0 0 0 0 0 0 0 0 0 0 0 0 0 0 0 0 0 0 0 0 0 0 0 0 0 0 0 0 0 0 0 0 0 0 0 0 0 0 0 0 0 0 0 0 0 0 0 0 0 0 0 0 0 0 0 0 0 0 0 0 0 0 0 0 0 0 0 
ST 43 1 0 0 0 0 0 1 0 0 0 0 0 0 0 0 0 0 0 0 0 0 0 0 0 0 0 0 0 0 0 1 0 0 0 0 0 0 0 0 0 0 0 0 0 0 0 0 0 0 0 0 0 0 0 0 0 0 0 0 0 0 0 0 0 0 0 0 0 0 0 0 0 0 0 0 
ST 44 0 1 0 0 0 0 0 0 0 0 0 0 0 0 0 0 0 0 1 0 0 0 0 0 0 0 0 0 0 0 0 0 0 0 0 0 0 1 0 0 0 0 0 0 0 0 0 0 0 0 0 0 0 0 0 0 0 0 0 0 1 0 0 1 0 0 0 0 0 0 0 0 0 0 0 
ST 45 0 0 0 1 0 0 1 0 0 0 0 0 1 0 0 0 0 0 0 0 0 0 0 0 0 0 0 0 0 0 0 0 0 0 0 0 0 0 0 0 0 0 0 0 0 0 0 0 0 0 0 0 0 0 0 0 0 0 0 1 0 0 0 0 1 0 0 0 0 0 1 0 0 0 0 
ST 46 0 0 0 0 0 0 0 0 0 0 0 1 0 0 0 0 0 0 1 0 0 0 1 0 0 0 0 1 0 0 0 0 0 0 0 0 0 0 0 0 0 0 0 0 0 0 0 0 0 0 0 0 0 0 0 0 0 0 0 0 0 0 1 0 0 0 0 0 0 0 0 0 0 1 0 
ST 47 0 1 0 0 0 0 1 0 1 1 0 0 1 0 0 0 0 1 0 0 1 0 0 0 0 0 1 0 0 1 1 1 0 0 0 1 1 0 1 0 1 0 0 0 1 0 0 0 1 0 1 1 0 1 0 1 1 0 1 1 0 0 0 0 0 0 0 0 0 1 0 1 0 0 0 
ST 48 0 0 0 1 0 0 0 0 0 0 0 0 0 0 0 0 0 0 0 0 0 0 0 0 0 0 0 0 0 0 0 0 0 0 0 0 0 0 0 0 0 0 0 0 0 0 0 0 0 0 0 0 0 0 0 0 0 0 0 0 0 0 0 0 0 0 0 0 0 0 0 0 0 0 0 
ST 49 0 0 0 0 0 0 0 0 0 0 0 0 0 0 0 0 0 0 0 0 0 0 0 0 0 0 0 0 0 0 0 0 0 0 0 0 0 0 0 0 0 0 0 0 0 0 0 0 0 0 0 0 0 0 0 0 0 0 0 0 0 0 0 0 0 0 0 0 0 0 0 0 0 0 0 
ST 50 0 0 0 0 0 0 0 1 0 0 0 0 0 0 0 0 0 0 0 0 0 0 0 0 0 0 0 0 0 0 0 0 0 0 0 0 0 0 0 0 0 0 0 0 0 0 0 0 0 0 0 0 0 0 0 0 0 0 0 0 0 0 0 0 0 0 0 0 0 0 0 0 0 0 0 
ST 51 0 0 0 0 0 0 1 0 0 1 1 0 0 1 0 0 0 0 0 0 0 0 0 0 0 0 0 0 0 0 0 1 0 1 0 0 0 0 0 0 0 0 0 0 0 1 0 0 0 0 0 0 0 0 0 0 0 0 0 0 0 0 0 0 0 0 0 0 0 0 0 0 0 0 0 
ST 52 0 0 0 0 0 0 0 0 0 0 0 0 0 0 0 0 1 0 0 0 0 0 0 0 0 0 0 0 0 0 0 0 0 0 0 0 0 0 0 0 0 0 0 0 0 0 0 0 0 0 1 0 0 1 0 0 0 1 0 0 0 0 0 0 0 0 0 0 0 0 0 0 0 0 0 
ST 53 0 0 0 0 0 0 0 0 0 1 0 0 0 0 0 0 0 0 0 0 0 0 0 0 0 0 0 0 1 0 0 0 0 0 0 0 0 0 0 0 0 0 0 0 0 0 0 0 0 0 0 0 0 0 0 0 0 0 0 0 0 0 0 0 0 0 0 0 0 0 0 0 0 0 0 
END


SECTION Coordinates
DD 1 420 128
DD 2 346 174
DD 3 0 0
DD 4 322 184
DD 5 222 50
DD 6 160 276
DD 7 160 110
DD 8 222 104
DD 9 160 140
DD 10 494 276
DD 11 346 104
DD 12 160 184
DD 13 0 364
DD 14 304 104
DD 15 160 364
DD 16 492 276
DD 17 160 62
DD 18 492 364
DD 19 494 250
DD 20 494 0
DD 21 346 250
DD 22 286 102
DD 23 286 50
DD 24 160 0
DD 25 420 102
DD 26 0 276
DD 27 346 364
DD 28 286 104
DD 29 160 104
DD 30 304 276
DD 31 304 50
DD 32 420 174
DD 33 304 364
DD 34 0 184
DD 35 492 174
DD 36 322 276
DD 37 304 0
DD 38 494 174
DD 39 322 364
DD 40 85 0
DD 41 494 364
DD 42 494 102
DD 43 304 102
DD 44 222 62
DD 45 322 250
DD 46 492 250
DD 47 392 102
DD 48 346 276
DD 49 222 0
DD 50 492 102
DD 51 346 184
DD 52 0 110
DD 53 346 102
END

EOF
